p cnf 28 166
1 5 9 13 17 21 25 0
2 6 10 14 18 22 26 0
3 7 11 15 19 23 27 0
4 8 12 16 20 24 28 0
-1 -2 0
-1 -3 0
-1 -4 0
-2 -3 0
-2 -4 0
-3 -4 0
-5 -6 0
-5 -7 0
-5 -8 0
-6 -7 0
-6 -8 0
-7 -8 0
-9 -10 0
-9 -11 0
-9 -12 0
-10 -11 0
-10 -12 0
-11 -12 0
-13 -14 0
-13 -15 0
-13 -16 0
-14 -15 0
-14 -16 0
-15 -16 0
-17 -18 0
-17 -19 0
-17 -20 0
-18 -19 0
-18 -20 0
-19 -20 0
-21 -22 0
-21 -23 0
-21 -24 0
-22 -23 0
-22 -24 0
-23 -24 0
-25 -26 0
-25 -27 0
-25 -28 0
-26 -27 0
-26 -28 0
-27 -28 0
-1 -14 0
-1 -15 0
-1 -16 0
-2 -13 0
-2 -15 0
-2 -16 0
-3 -13 0
-3 -14 0
-3 -16 0
-4 -13 0
-4 -14 0
-4 -15 0
-5 -10 0
-5 -11 0
-5 -12 0
-6 -9 0
-6 -11 0
-6 -12 0
-7 -9 0
-7 -10 0
-7 -12 0
-8 -9 0
-8 -10 0
-8 -11 0
-5 -22 0
-5 -23 0
-5 -24 0
-6 -21 0
-6 -23 0
-6 -24 0
-7 -21 0
-7 -22 0
-7 -24 0
-8 -21 0
-8 -22 0
-8 -23 0
-5 -26 0
-5 -27 0
-5 -28 0
-6 -25 0
-6 -27 0
-6 -28 0
-7 -25 0
-7 -26 0
-7 -28 0
-8 -25 0
-8 -26 0
-8 -27 0
-9 -14 0
-9 -15 0
-9 -16 0
-10 -13 0
-10 -15 0
-10 -16 0
-11 -13 0
-11 -14 0
-11 -16 0
-12 -13 0
-12 -14 0
-12 -15 0
-9 -22 0
-9 -23 0
-9 -24 0
-10 -21 0
-10 -23 0
-10 -24 0
-11 -21 0
-11 -22 0
-11 -24 0
-12 -21 0
-12 -22 0
-12 -23 0
-13 -22 0
-13 -23 0
-13 -24 0
-14 -21 0
-14 -23 0
-14 -24 0
-15 -21 0
-15 -22 0
-15 -24 0
-16 -21 0
-16 -22 0
-16 -23 0
-13 -26 0
-13 -27 0
-13 -28 0
-14 -25 0
-14 -27 0
-14 -28 0
-15 -25 0
-15 -26 0
-15 -28 0
-16 -25 0
-16 -26 0
-16 -27 0
-17 -22 0
-17 -23 0
-17 -24 0
-18 -21 0
-18 -23 0
-18 -24 0
-19 -21 0
-19 -22 0
-19 -24 0
-20 -21 0
-20 -22 0
-20 -23 0
-17 -26 0
-17 -27 0
-17 -28 0
-18 -25 0
-18 -27 0
-18 -28 0
-19 -25 0
-19 -26 0
-19 -28 0
-20 -25 0
-20 -26 0
-20 -27 0
